c Random generated cnf formula, satisfiable: true
p cnf 10 50
-7 3 10 0
7 -9 4 0
10 -6 8 0
-2 7 4 0
1 -8 -2 0
-3 -10 -9 0
3 4 -8 0
-4 1 -10 0
-4 -1 -7 0
6 -1 10 0
-3 -6 10 0
1 -10 -5 0
5 -2 -6 0
1 -2 6 0
-6 4 -9 0
1 -9 -6 0
2 -1 9 0
8 2 10 0
10 -2 1 0
4 5 1 0
4 -2 7 0
-3 2 -9 0
-3 2 -9 0
4 -9 -6 0
-9 7 -3 0
-3 9 6 0
-8 -5 9 0
1 7 8 0
-7 -2 -6 0
8 5 2 0
5 6 -4 0
10 6 -1 0
5 1 2 0
-2 3 4 0
9 7 -5 0
-4 5 -8 0
5 2 4 0
-6 7 4 0
3 10 4 0
2 3 -6 0
2 5 -10 0
-5 8 9 0
3 -5 -1 0
6 -2 10 0
-3 7 9 0
5 -1 -7 0
-9 -8 -7 0
-6 4 -3 0
-3 9 1 0
8 -4 10 0
